\ Model FlowOPT
\ LP format - for model browsing. Use MPS format to capture full model detail.
Maximize
  1.126230911056966 z[0,1] + 0.6722457373809595 z[1,1]
   + 0.9547638327180864 z[2,1] + 0.9271242163146473 z[3,1]
   + 0.5653425179379258 z[4,1] + 0.5364390078597089 z[5,1]
   + 0.9997185868553997 z[6,1] + 0.676242422350807 z[7,1]
   + 1.094776323115308 z[8,1] + 0.4815464930010275 z[9,1]
   + 0.6430147652025345 z[10,1] + 1.116261574270254 z[11,1]
   + 0.7060178174107076 z[12,1] + 0.8609500415341396 z[13,1]
   + 0.6437376755692227 z[14,1] + 0.6047870748663582 z[15,1]
   + 1.059335487361315 z[16,1] + 1.195369301526244 z[17,1]
   + 1.353737640433656 z[18,1] + 0.9016601372705547 z[19,1]
   + 1.053944183016542 z[20,1] + 1.355349759180983 z[21,1]
   + 1.002819207497365 z[22,1] + 0.5574269991608535 z[23,1]
   + 0.5052345573701655 z[24,1] + 0.4472848476168136 z[25,1]
   + 1.772517257693076 z[26,1] + 1.624591644403154 z[27,1]
   + 1.448688349676095 z[28,1] + 0.2955102007083396 z[29,1]
   + 1.175800200201604 z[30,1] + 1.512645693478897 z[31,1]
   + 1.287025662253123 z[32,1] + 0.5965151532955268 z[33,1]
   + 0.4646762119453457 z[34,1] + 0.5534376996774909 z[35,1]
   + 0.7845768668336293 z[36,1] + 0.4369382477868743 z[37,1]
   + 0.7412722688878406 z[38,1] + 1.356383385498314 z[39,1]
   + 1.127224576791491 z[40,1] + 1.620859649398758 z[41,1]
   + 0.9765180580520934 z[42,1] + 1.270652961164696 z[43,1]
   + 1.253815769543119 z[44,1] + 0.8319128082703692 z[45,1]
   + 1.785375482289679 z[46,1] + 0.4788835990583236 z[47,1]
   + 0.5721251619580424 z[48,1] + 0.9017629740867139 z[49,1]
   + 0.2445841280120454 z[50,1] + 0.7275711829564597 z[51,1]
   + 0.7497842786366576 z[52,1] + 1.054129036212238 z[53,1]
   + 0.4195655055119263 z[54,1] + 1.132418044452394 z[55,1]
   + 0.0191087592764215 z[56,1] + 1.017358239342618 z[57,1]
   + 0.9438045032312491 z[58,1] + 1.039308503606729 z[59,1]
   + 0.8229539689655797 z[60,1] + 1.117910020504382 z[61,1]
   + 0.8572092338470744 z[62,1] + 0.6946738403751459 z[63,1]
   + 0.551220913915787 z[64,1] + 1.214487619423945 z[65,1]
   + 0.6681847229754541 z[66,1] + 0.4334962636716518 z[68,1]
   + 1.651928829360799 z[69,1] + 0.6157082135868618 z[70,1]
   + 0.9806821285223177 z[71,1] + 0.9023745765793968 z[72,1]
   + 1.228063445382216 z[73,1] + 1.830501531133007 z[74,1]
   + 1.05054895837906 z[75,1] + 1.003280282568791 z[76,1]
   + 0.7611794428267471 z[77,1] + 0.6181282950621512 z[78,1]
   + 0.7655256641431761 z[79,1] + 1.063689660127945 z[80,1]
   + 0.5011458055809677 z[81,1] + 1.121929653776508 z[82,1]
   + 0.8779866424336548 z[83,1] + 0.9008310565481702 z[84,1]
   + 1.046701914561059 z[85,1] + 1.074899112547942 z[86,1]
   + 0.4245766116750557 z[87,1] + 0.4351900636558272 z[88,1]
   + 0.8324664896239523 z[89,1] + 1.728057225390453 z[90,1]
   + 1.086090239547254 z[91,1] + 0.5261940235211964 z[92,1]
   + 0.7609750974621032 z[93,1] + 0.5960278989861726 z[94,1]
   + 1.069094165264056 z[95,1] + 0.3161507232624812 z[96,1]
   + 1.235243774322444 z[97,1] + 0.8613907342867677 z[98,1]
   + 0.6019438895303098 z[99,1]
Subject To
 R0: p[1] = 1
 R1: - w[1,0] + zeta[0,1] <= 0
 R2: - w[1,0] + zeta[1,1] <= 0
 R3: - w[1,1] + zeta[2,1] <= 0
 R4: - w[1,1] + zeta[3,1] <= 0
 R5: - w[1,0] + zeta[4,1] <= 0
 R6: - w[1,1] + zeta[5,1] <= 0
 R7: - w[1,1] + zeta[6,1] <= 0
 R8: - w[1,0] + zeta[7,1] <= 0
 R9: - w[1,0] + zeta[8,1] <= 0
 R10: - w[1,0] + zeta[9,1] <= 0
 R11: - w[1,1] + zeta[10,1] <= 0
 R12: - w[1,1] + zeta[11,1] <= 0
 R13: - w[1,1] + zeta[12,1] <= 0
 R14: - w[1,0] + zeta[13,1] <= 0
 R15: - w[1,1] + zeta[14,1] <= 0
 R16: - w[1,0] + zeta[15,1] <= 0
 R17: - w[1,0] + zeta[16,1] <= 0
 R18: - w[1,1] + zeta[17,1] <= 0
 R19: - w[1,1] + zeta[18,1] <= 0
 R20: - w[1,0] + zeta[19,1] <= 0
 R21: - w[1,0] + zeta[20,1] <= 0
 R22: - w[1,1] + zeta[21,1] <= 0
 R23: - w[1,0] + zeta[22,1] <= 0
 R24: - w[1,0] + zeta[23,1] <= 0
 R25: - w[1,1] + zeta[24,1] <= 0
 R26: - w[1,1] + zeta[25,1] <= 0
 R27: - w[1,0] + zeta[26,1] <= 0
 R28: - w[1,1] + zeta[27,1] <= 0
 R29: - w[1,0] + zeta[28,1] <= 0
 R30: - w[1,0] + zeta[29,1] <= 0
 R31: - w[1,0] + zeta[30,1] <= 0
 R32: - w[1,1] + zeta[31,1] <= 0
 R33: - w[1,0] + zeta[32,1] <= 0
 R34: - w[1,1] + zeta[33,1] <= 0
 R35: - w[1,1] + zeta[34,1] <= 0
 R36: - w[1,0] + zeta[35,1] <= 0
 R37: - w[1,1] + zeta[36,1] <= 0
 R38: - w[1,1] + zeta[37,1] <= 0
 R39: - w[1,0] + zeta[38,1] <= 0
 R40: - w[1,0] + zeta[39,1] <= 0
 R41: - w[1,0] + zeta[40,1] <= 0
 R42: - w[1,0] + zeta[41,1] <= 0
 R43: - w[1,0] + zeta[42,1] <= 0
 R44: - w[1,1] + zeta[43,1] <= 0
 R45: - w[1,0] + zeta[44,1] <= 0
 R46: - w[1,0] + zeta[45,1] <= 0
 R47: - w[1,0] + zeta[46,1] <= 0
 R48: - w[1,1] + zeta[47,1] <= 0
 R49: - w[1,1] + zeta[48,1] <= 0
 R50: - w[1,1] + zeta[49,1] <= 0
 R51: - w[1,1] + zeta[50,1] <= 0
 R52: - w[1,1] + zeta[51,1] <= 0
 R53: - w[1,0] + zeta[52,1] <= 0
 R54: - w[1,1] + zeta[53,1] <= 0
 R55: - w[1,1] + zeta[54,1] <= 0
 R56: - w[1,1] + zeta[55,1] <= 0
 R57: - w[1,1] + zeta[56,1] <= 0
 R58: - w[1,0] + zeta[57,1] <= 0
 R59: - w[1,1] + zeta[58,1] <= 0
 R60: - w[1,0] + zeta[59,1] <= 0
 R61: - w[1,1] + zeta[60,1] <= 0
 R62: - w[1,1] + zeta[61,1] <= 0
 R63: - w[1,0] + zeta[62,1] <= 0
 R64: - w[1,1] + zeta[63,1] <= 0
 R65: - w[1,1] + zeta[64,1] <= 0
 R66: - w[1,1] + zeta[65,1] <= 0
 R67: - w[1,1] + zeta[66,1] <= 0
 R68: - w[1,1] + zeta[67,1] <= 0
 R69: - w[1,0] + zeta[68,1] <= 0
 R70: - w[1,0] + zeta[69,1] <= 0
 R71: - w[1,1] + zeta[70,1] <= 0
 R72: - w[1,1] + zeta[71,1] <= 0
 R73: - w[1,1] + zeta[72,1] <= 0
 R74: - w[1,1] + zeta[73,1] <= 0
 R75: - w[1,0] + zeta[74,1] <= 0
 R76: - w[1,1] + zeta[75,1] <= 0
 R77: - w[1,1] + zeta[76,1] <= 0
 R78: - w[1,1] + zeta[77,1] <= 0
 R79: - w[1,1] + zeta[78,1] <= 0
 R80: - w[1,0] + zeta[79,1] <= 0
 R81: - w[1,1] + zeta[80,1] <= 0
 R82: - w[1,1] + zeta[81,1] <= 0
 R83: - w[1,0] + zeta[82,1] <= 0
 R84: - w[1,0] + zeta[83,1] <= 0
 R85: - w[1,0] + zeta[84,1] <= 0
 R86: - w[1,0] + zeta[85,1] <= 0
 R87: - w[1,0] + zeta[86,1] <= 0
 R88: - w[1,0] + zeta[87,1] <= 0
 R89: - w[1,1] + zeta[88,1] <= 0
 R90: - w[1,0] + zeta[89,1] <= 0
 R91: - w[1,0] + zeta[90,1] <= 0
 R92: - w[1,0] + zeta[91,1] <= 0
 R93: - w[1,1] + zeta[92,1] <= 0
 R94: - w[1,1] + zeta[93,1] <= 0
 R95: - w[1,1] + zeta[94,1] <= 0
 R96: - w[1,1] + zeta[95,1] <= 0
 R97: - w[1,0] + zeta[96,1] <= 0
 R98: - w[1,0] + zeta[97,1] <= 0
 R99: - w[1,0] + zeta[98,1] <= 0
 R100: - w[1,0] + zeta[99,1] <= 0
 R101: - p[1] + w[1,0] + w[1,1] = 0
 R102: zeta[0,1] - z[0,1] = 0
 R103: zeta[1,1] - z[1,1] = 0
 R104: zeta[2,1] - z[2,1] = 0
 R105: zeta[3,1] - z[3,1] = 0
 R106: zeta[4,1] - z[4,1] = 0
 R107: zeta[5,1] - z[5,1] = 0
 R108: zeta[6,1] - z[6,1] = 0
 R109: zeta[7,1] - z[7,1] = 0
 R110: zeta[8,1] - z[8,1] = 0
 R111: zeta[9,1] - z[9,1] = 0
 R112: zeta[10,1] - z[10,1] = 0
 R113: zeta[11,1] - z[11,1] = 0
 R114: zeta[12,1] - z[12,1] = 0
 R115: zeta[13,1] - z[13,1] = 0
 R116: zeta[14,1] - z[14,1] = 0
 R117: zeta[15,1] - z[15,1] = 0
 R118: zeta[16,1] - z[16,1] = 0
 R119: zeta[17,1] - z[17,1] = 0
 R120: zeta[18,1] - z[18,1] = 0
 R121: zeta[19,1] - z[19,1] = 0
 R122: zeta[20,1] - z[20,1] = 0
 R123: zeta[21,1] - z[21,1] = 0
 R124: zeta[22,1] - z[22,1] = 0
 R125: zeta[23,1] - z[23,1] = 0
 R126: zeta[24,1] - z[24,1] = 0
 R127: zeta[25,1] - z[25,1] = 0
 R128: zeta[26,1] - z[26,1] = 0
 R129: zeta[27,1] - z[27,1] = 0
 R130: zeta[28,1] - z[28,1] = 0
 R131: zeta[29,1] - z[29,1] = 0
 R132: zeta[30,1] - z[30,1] = 0
 R133: zeta[31,1] - z[31,1] = 0
 R134: zeta[32,1] - z[32,1] = 0
 R135: zeta[33,1] - z[33,1] = 0
 R136: zeta[34,1] - z[34,1] = 0
 R137: zeta[35,1] - z[35,1] = 0
 R138: zeta[36,1] - z[36,1] = 0
 R139: zeta[37,1] - z[37,1] = 0
 R140: zeta[38,1] - z[38,1] = 0
 R141: zeta[39,1] - z[39,1] = 0
 R142: zeta[40,1] - z[40,1] = 0
 R143: zeta[41,1] - z[41,1] = 0
 R144: zeta[42,1] - z[42,1] = 0
 R145: zeta[43,1] - z[43,1] = 0
 R146: zeta[44,1] - z[44,1] = 0
 R147: zeta[45,1] - z[45,1] = 0
 R148: zeta[46,1] - z[46,1] = 0
 R149: zeta[47,1] - z[47,1] = 0
 R150: zeta[48,1] - z[48,1] = 0
 R151: zeta[49,1] - z[49,1] = 0
 R152: zeta[50,1] - z[50,1] = 0
 R153: zeta[51,1] - z[51,1] = 0
 R154: zeta[52,1] - z[52,1] = 0
 R155: zeta[53,1] - z[53,1] = 0
 R156: zeta[54,1] - z[54,1] = 0
 R157: zeta[55,1] - z[55,1] = 0
 R158: zeta[56,1] - z[56,1] = 0
 R159: zeta[57,1] - z[57,1] = 0
 R160: zeta[58,1] - z[58,1] = 0
 R161: zeta[59,1] - z[59,1] = 0
 R162: zeta[60,1] - z[60,1] = 0
 R163: zeta[61,1] - z[61,1] = 0
 R164: zeta[62,1] - z[62,1] = 0
 R165: zeta[63,1] - z[63,1] = 0
 R166: zeta[64,1] - z[64,1] = 0
 R167: zeta[65,1] - z[65,1] = 0
 R168: zeta[66,1] - z[66,1] = 0
 R169: zeta[67,1] - z[67,1] = 0
 R170: zeta[68,1] - z[68,1] = 0
 R171: zeta[69,1] - z[69,1] = 0
 R172: zeta[70,1] - z[70,1] = 0
 R173: zeta[71,1] - z[71,1] = 0
 R174: zeta[72,1] - z[72,1] = 0
 R175: zeta[73,1] - z[73,1] = 0
 R176: zeta[74,1] - z[74,1] = 0
 R177: zeta[75,1] - z[75,1] = 0
 R178: zeta[76,1] - z[76,1] = 0
 R179: zeta[77,1] - z[77,1] = 0
 R180: zeta[78,1] - z[78,1] = 0
 R181: zeta[79,1] - z[79,1] = 0
 R182: zeta[80,1] - z[80,1] = 0
 R183: zeta[81,1] - z[81,1] = 0
 R184: zeta[82,1] - z[82,1] = 0
 R185: zeta[83,1] - z[83,1] = 0
 R186: zeta[84,1] - z[84,1] = 0
 R187: zeta[85,1] - z[85,1] = 0
 R188: zeta[86,1] - z[86,1] = 0
 R189: zeta[87,1] - z[87,1] = 0
 R190: zeta[88,1] - z[88,1] = 0
 R191: zeta[89,1] - z[89,1] = 0
 R192: zeta[90,1] - z[90,1] = 0
 R193: zeta[91,1] - z[91,1] = 0
 R194: zeta[92,1] - z[92,1] = 0
 R195: zeta[93,1] - z[93,1] = 0
 R196: zeta[94,1] - z[94,1] = 0
 R197: zeta[95,1] - z[95,1] = 0
 R198: zeta[96,1] - z[96,1] = 0
 R199: zeta[97,1] - z[97,1] = 0
 R200: zeta[98,1] - z[98,1] = 0
 R201: zeta[99,1] - z[99,1] = 0
Bounds
Binaries
 p[1]
End
